c CNF generator v0.9
p cnf 50 50
-11 13 39 0
-47 10 34 0
41 32 16 0
-29 7 -13 0
-4 35 23 0
-14 42 -31 0
-29 -34 -4 0
21 39 46 0
10 -25 40 0
12 16 18 0
25 -46 35 0
42 -46 31 0
48 -31 -47 0
25 16 31 0
-26 -33 41 0
48 15 18 0
29 14 -10 0
9 11 22 0
30 -48 15 0
-37 -13 29 0
-25 26 31 0
-17 38 11 0
43 -20 -36 0
-10 -23 -16 0
44 -11 -24 0
-19 -10 22 0
16 29 12 0
39 -22 35 0
13 13 -8 0
-20 19 29 0
-10 -42 -50 0
-37 -49 15 0
22 24 -2 0
-46 -2 23 0
-37 29 2 0
25 45 43 0
46 -45 -24 0
-9 21 44 0
12 20 42 0
-26 41 -42 0
-16 -1 -19 0
15 -32 28 0
35 32 -9 0
-13 -26 -5 0
-49 31 33 0
43 -49 -9 0
17 8 46 0
24 13 41 0
46 23 42 0
36 -37 4 0
